c CNF file corresponding to a (partial) station packing problem.
p cnf 2272 171
2260 2261 2262 2263 2264 2265 2266 2267 2268 2269 2270 2271 2272 0
-2260 -2261 0
-2260 -2262 0
-2260 -2263 0
-2260 -2264 0
-2260 -2265 0
-2260 -2266 0
-2260 -2267 0
-2260 -2268 0
-2260 -2269 0
-2260 -2270 0
-2260 -2271 0
-2260 -2272 0
-2261 -2262 0
-2261 -2263 0
-2261 -2264 0
-2261 -2265 0
-2261 -2266 0
-2261 -2267 0
-2261 -2268 0
-2261 -2269 0
-2261 -2270 0
-2261 -2271 0
-2261 -2272 0
-2262 -2263 0
-2262 -2264 0
-2262 -2265 0
-2262 -2266 0
-2262 -2267 0
-2262 -2268 0
-2262 -2269 0
-2262 -2270 0
-2262 -2271 0
-2262 -2272 0
-2263 -2264 0
-2263 -2265 0
-2263 -2266 0
-2263 -2267 0
-2263 -2268 0
-2263 -2269 0
-2263 -2270 0
-2263 -2271 0
-2263 -2272 0
-2264 -2265 0
-2264 -2266 0
-2264 -2267 0
-2264 -2268 0
-2264 -2269 0
-2264 -2270 0
-2264 -2271 0
-2264 -2272 0
-2265 -2266 0
-2265 -2267 0
-2265 -2268 0
-2265 -2269 0
-2265 -2270 0
-2265 -2271 0
-2265 -2272 0
-2266 -2267 0
-2266 -2268 0
-2266 -2269 0
-2266 -2270 0
-2266 -2271 0
-2266 -2272 0
-2267 -2268 0
-2267 -2269 0
-2267 -2270 0
-2267 -2271 0
-2267 -2272 0
-2268 -2269 0
-2268 -2270 0
-2268 -2271 0
-2268 -2272 0
-2269 -2270 0
-2269 -2271 0
-2269 -2272 0
-2270 -2271 0
-2270 -2272 0
-2271 -2272 0
1 2 3 4 5 6 7 8 9 10 11 12 13 14 0
-1 -2 0
-1 -3 0
-1 -4 0
-1 -5 0
-1 -6 0
-1 -7 0
-1 -8 0
-1 -9 0
-1 -10 0
-1 -11 0
-1 -12 0
-1 -13 0
-1 -14 0
-2 -3 0
-2 -4 0
-2 -5 0
-2 -6 0
-2 -7 0
-2 -8 0
-2 -9 0
-2 -10 0
-2 -11 0
-2 -12 0
-2 -13 0
-2 -14 0
-3 -4 0
-3 -5 0
-3 -6 0
-3 -7 0
-3 -8 0
-3 -9 0
-3 -10 0
-3 -11 0
-3 -12 0
-3 -13 0
-3 -14 0
-4 -5 0
-4 -6 0
-4 -7 0
-4 -8 0
-4 -9 0
-4 -10 0
-4 -11 0
-4 -12 0
-4 -13 0
-4 -14 0
-5 -6 0
-5 -7 0
-5 -8 0
-5 -9 0
-5 -10 0
-5 -11 0
-5 -12 0
-5 -13 0
-5 -14 0
-6 -7 0
-6 -8 0
-6 -9 0
-6 -10 0
-6 -11 0
-6 -12 0
-6 -13 0
-6 -14 0
-7 -8 0
-7 -9 0
-7 -10 0
-7 -11 0
-7 -12 0
-7 -13 0
-7 -14 0
-8 -9 0
-8 -10 0
-8 -11 0
-8 -12 0
-8 -13 0
-8 -14 0
-9 -10 0
-9 -11 0
-9 -12 0
-9 -13 0
-9 -14 0
-10 -11 0
-10 -12 0
-10 -13 0
-10 -14 0
-11 -12 0
-11 -13 0
-11 -14 0
-12 -13 0
-12 -14 0
-13 -14 0
